Version identifier: 22.1.1.0 | 2022-11-28 | 9160aff4d
CPXPARAM_ClockType                               1
CPXPARAM_Read_DataCheck                          1
CPXPARAM_Threads                                 1
CPXPARAM_TimeLimit                               7200
CPXPARAM_MIP_Tolerances_AbsMIPGap                0
CPXPARAM_MIP_Tolerances_MIPGap                   0
CPXPARAM_MIP_Tolerances_Integrality              0
Tried aggregator 5 times.
MIP Presolve eliminated 8727 rows and 270 columns.
MIP Presolve modified 10694 coefficients.
Aggregator did 84272 substitutions.
Reduced MIP has 878752 rows, 418906 columns, and 2563786 nonzeros.
Reduced MIP has 418906 binaries, 0 generals, 0 SOSs, and 0 indicators.
Presolve time = 12.05 sec. (5908.31 ticks)
Elapsed time = 36.49 sec. (10000.03 ticks) for 21% of probing (49905 vars fixed)
Probing fixed 49928 vars, tightened 0 bounds.
Probing changed sense of 1671 constraints.
Probing time = 71.54 sec. (19335.48 ticks)
Cover probing fixed 0 vars, tightened 1 bounds.
Tried aggregator 7 times.
MIP Presolve eliminated 155997 rows and 61467 columns.
MIP Presolve modified 2090 coefficients.
Aggregator did 12624 substitutions.
Reduced MIP has 710131 rows, 344814 columns, and 2096917 nonzeros.
Reduced MIP has 344814 binaries, 0 generals, 0 SOSs, and 0 indicators.
Presolve time = 18.77 sec. (8667.54 ticks)
Probing time = 0.31 sec. (82.11 ticks)
Tried aggregator 2 times.
Detecting symmetries...
MIP Presolve eliminated 666 rows and 0 columns.
MIP Presolve modified 6 coefficients.
Aggregator did 1 substitutions.
Reduced MIP has 709464 rows, 344813 columns, and 2094913 nonzeros.
Reduced MIP has 344813 binaries, 0 generals, 0 SOSs, and 0 indicators.
Presolve time = 6.88 sec. (6819.23 ticks)
Probing time = 0.31 sec. (83.09 ticks)
Clique table members: 1415268.
MIP emphasis: balance optimality and feasibility.
MIP search method: dynamic search.
Parallel mode: none, using 1 thread.
Root relaxation solution time = 34.78 sec. (26701.02 ticks)

        Nodes                                         Cuts/
   Node  Left     Objective  IInf  Best Integer    Best Bound    ItCnt     Gap

      0     0    69778.0000 127797                  69778.0000   208811         
      0     0    68402.5417 128695                 Cuts: 10000   242681         
      0     0    65569.9102 129626                 Cuts: 10000   295363         
      0     0    63367.0174 134879                 Cuts: 10000   357870         
